[[72, 81, 80, 71, 70, 69, 78, 77, 79, 88, 89, 90, 99, 98], [97, 96, 87, 95, 86, 85, 84, 94, 93, 92, 91, 83, 82, 73, 74, 75, 76, 67, 68], [66, 64, 65, 56, 59, 58, 49, 57, 55, 46, 47, 48, 39, 40, 50, 41, 32, 38, 37, 28, 29, 30, 31], [19, 21, 22, 20, 13, 12, 11, 10, 2, 3, 4, 14, 5, 6, 7, 8, 9, 18, 17, 27, 16], [15, 23, 24, 25, 26, 35, 36, 34, 33, 42, 43, 44, 45, 51, 52, 53, 54, 63, 62, 60, 61]]